135439
452
453
454
455
456
457
458
459
466
465
460
430
429
428
461
462
463
464
423
424
425
426
427
419
418
420
422
421
405
406
407
404
403
402
408
409
412
411
410
416
417
415
414
413
437
436
435
997
431
432
433
434
446
447
445
444
443
442
440
438
439
441
632
631
630
629
611
627
628
626
625
992
633
634
635
636
637
638
639
640
373
374
375
376
372
371
370
377
369
378
368
367
366
365
364
363
362
361
360
391
392
390
389
388
379
381
380
382
383
385
386
387
393
394
395
384
401
399
400
396
397
398
340
339
344
345
349
350
351
352
353
354
359
358
357
355
356
660
661
662
656
655
657
658
659
642
654
652
653
643
644
641
645
646
647
648
651
650
649
622
621
623
624
617
618
619
620
730
729
727
728
726
725
724
712
711
710
713
709
708
737
736
735
734
738
739
740
744
745
743
742
741
764
763
1000
758
759
760
761
762
780
779
782
781
783
784
785
786
787
801
802
803
804
805
806
809
810
811
812
820
819
823
824
825
822
821
808
807
800
799
798
797
796
601
795
794
793
788
756
757
789
790
791
792
751
752
753
754
755
747
746
748
750
749
733
732
731
616
615
614
613
612
610
609
608
607
606
605
604
603
602
600
599
597
596
595
594
590
593
557
556
555
554
553
552
551
550
549
548
542
543
544
541
539
540
545
547
546
519
518
565
564
563
562
561
560
558
559
592
591
574
573
572
571
570
514
569
568
566
567
516
517
520
521
522
537
528
527
526
529
525
515
523
524
530
510
509
511
512
513
487
500
498
499
489
488
486
485
490
491
492
484
483
493
494
495
496
497
227
226
225
224
223
222
214
220
221
234
233
243
244
246
245
247
248
250
249
253
254
255
256
259
258
257
121
120
122
123
124
119
105
106
118
117
116
115
114
113
112
110
111
304
303
302
301
991
305
306
307
308
309
310
311
317
320
323
322
321
294
293
295
296
292
291
290
289
288
287
286
297
298
300
299
285
284
283
282
281
280
279
278
277
276
275
274
270
260
261
262
263
264
231
232
230
228
229
265
266
267
268
269
271
272
273
467
468
469
470
471
472
473
474
475
476
477
478
479
480
481
482
998
580
579
578
575
589
598
588
576
577
581
582
583
584
587
586
585
449
448
450
451
